6840
1 0 1 1 1 0 1 0 1 0 
0 6 4 6 2 2 3 3 8 8 4 6 2 6 2 2 3 3 0 6 6 6 4 4 6 4 4 4 8 8 8 0 0 0 3 2 2 6 6 2 2 3 3 3 3 4 0 3 6 4 4 6 6 6 2 2 2 3 8 3 0 0 6 8 0 6 6 6 4 4 0 4 4 0 3 2 2 2 6 3 6 2 2 2 2 2 2 2 2 2 
